66507
13,39,49,83,205,457,458,467,493,565,601,603,753,794,815,944,964,1073,1143,1315,1320,1563,1587,1729,1806,1814,2013,2265,2276,2498,2509,2575,2576,2829,2866,3032,3064,3084,3105,3141,3163,3319,3404,3419,3435,3572,3646,3727,3763,3769,3820,3833,4085,4090,4143,4256,4264,4350,4480,4488,4544,4652,4781,5079,5094,5101,5119,5124,5203,5233,5351,5371,5417,5557,5753,5789,5954,6009,6096,6169,6188,6211,6307,6376,6444,6517,6610,6631,6692,6757,7009,7046,7051,7117,7183,7190,7327,7364,7439,7441,7634,7743,7823,7908,7996,8187,8249,8292,8305,8353,8514,8557,8559,8579,8651,8741,8765,8792,8880,9013,9027,9094,9120,9142,9345,9358,9725,9801,9883,9904,9954
